Maximize
   x1 +  x2 +  x3 +  x4 +  x5 +  x6 +  x7 +  x8 +  x9 +  x10 +  x11 +  x12 +  x13 +  x14 

Subject To
DEG1: x1 + x2 + x3 + x4 <= 1
DEG2: x1 + x5 + x6 + x7 <= 1
DEG3: x2 + x8 + x9 <= 1
DEG4: x5 + x8 + x10 <= 1
DEG5: x3 + x6 + x11 <= 1
DEG6: x11 + x12 + x13 <= 1
DEG7: x7 + x10 + x12 + x14 <= 1
DEG8: x4 + x9 + x13 + x14 <= 1
(1,4)-SEP_#1: x1 + x2 + x3 + x4 +x5+x8+x10 -x4 -x9 -x13 -x14 -x1 -x5 -x6 -x7 -x2 -x8 -x9 -x3 -x6 -x11 <= 1
(1,4)-SEP_#2: x1 + x2 + x3 + x4 +x5+x8+x10 -x1 -x5 -x6 -x7 -x2 -x8 -x9 -x7 -x10 -x12 -x14 <= 1
(1,4)-SEP_#3: x1 + x2 + x3 + x4 +x5+x8+x10 -x4 -x9 -x13 -x14 -x1 -x5 -x6 -x7 -x2 -x8 -x9 -x11 -x12 -x13 <= 1
(1,6)-SEP_#1: x1 + x2 + x3 + x4 +x11+x12+x13 -x4 -x9 -x13 -x14 -x1 -x5 -x6 -x7 -x2 -x8 -x9 -x3 -x6 -x11 <= 1
(1,6)-SEP_#2: x1 + x2 + x3 + x4 +x11+x12+x13 -x4 -x9 -x13 -x14 -x3 -x6 -x11 -x7 -x10 -x12 -x14 <= 1
(1,6)-SEP_#3: x1 + x2 + x3 + x4 +x11+x12+x13 -x4 -x9 -x13 -x14 -x1 -x5 -x6 -x7 -x5 -x8 -x10 -x3 -x6 -x11 <= 1
(1,7)-SEP_#1: x1 + x2 + x3 + x4 +x7+x10+x12+x14 -x4 -x9 -x13 -x14 -x1 -x5 -x6 -x7 -x2 -x8 -x9 -x3 -x6 -x11 <= 1
(1,7)-SEP_#2: x1 + x2 + x3 + x4 +x7+x10+x12+x14 -x4 -x9 -x13 -x14 -x1 -x5 -x6 -x7 -x5 -x8 -x10 -x3 -x6 -x11 <= 1
(1,7)-SEP_#3: x1 + x2 + x3 + x4 +x7+x10+x12+x14 -x4 -x9 -x13 -x14 -x1 -x5 -x6 -x7 -x2 -x8 -x9 -x11 -x12 -x13 <= 1
(1,7)-SEP_#4: x1 + x2 + x3 + x4 +x7+x10+x12+x14 -x4 -x9 -x13 -x14 -x1 -x5 -x6 -x7 -x5 -x8 -x10 -x11 -x12 -x13 <= 1
(2,3)-SEP_#1: x1 + x5 + x6 + x7 +x2+x8+x9 -x1 -x2 -x3 -x4 -x5 -x8 -x10 -x3 -x6 -x11 -x7 -x10 -x12 -x14 <= 1
(2,3)-SEP_#2: x1 + x5 + x6 + x7 +x2+x8+x9 -x1 -x2 -x3 -x4 -x5 -x8 -x10 -x11 -x12 -x13 -x7 -x10 -x12 -x14 <= 1
(2,3)-SEP_#3: x1 + x5 + x6 + x7 +x2+x8+x9 -x4 -x9 -x13 -x14 -x1 -x2 -x3 -x4 -x5 -x8 -x10 <= 1
(2,6)-SEP_#1: x1 + x5 + x6 + x7 +x11+x12+x13 -x1 -x2 -x3 -x4 -x5 -x8 -x10 -x3 -x6 -x11 -x7 -x10 -x12 -x14 <= 1
(2,6)-SEP_#2: x1 + x5 + x6 + x7 +x11+x12+x13 -x4 -x9 -x13 -x14 -x3 -x6 -x11 -x7 -x10 -x12 -x14 <= 1
(2,6)-SEP_#3: x1 + x5 + x6 + x7 +x11+x12+x13 -x1 -x2 -x3 -x4 -x2 -x8 -x9 -x3 -x6 -x11 -x7 -x10 -x12 -x14 <= 1
(2,8)-SEP_#1: x1 + x5 + x6 + x7 +x4+x9+x13+x14 -x1 -x2 -x3 -x4 -x5 -x8 -x10 -x3 -x6 -x11 -x7 -x10 -x12 -x14 <= 1
(2,8)-SEP_#2: x1 + x5 + x6 + x7 +x4+x9+x13+x14 -x1 -x2 -x3 -x4 -x2 -x8 -x9 -x3 -x6 -x11 -x7 -x10 -x12 -x14 <= 1
(2,8)-SEP_#3: x1 + x5 + x6 + x7 +x4+x9+x13+x14 -x1 -x2 -x3 -x4 -x5 -x8 -x10 -x11 -x12 -x13 -x7 -x10 -x12 -x14 <= 1
(2,8)-SEP_#4: x1 + x5 + x6 + x7 +x4+x9+x13+x14 -x1 -x2 -x3 -x4 -x2 -x8 -x9 -x11 -x12 -x13 -x7 -x10 -x12 -x14 <= 1
(3,5)-SEP_#1: x2 + x8 + x9 +x3+x6+x11 -x4 -x9 -x13 -x14 -x1 -x2 -x3 -x4 -x5 -x8 -x10 <= 1
(3,5)-SEP_#2: x2 + x8 + x9 +x3+x6+x11 -x1 -x2 -x3 -x4 -x5 -x8 -x10 -x11 -x12 -x13 -x7 -x10 -x12 -x14 <= 1
(3,5)-SEP_#3: x2 + x8 + x9 +x3+x6+x11 -x4 -x9 -x13 -x14 -x1 -x2 -x3 -x4 -x1 -x5 -x6 -x7 -x7 -x10 -x12 -x14 <= 1
(3,5)-SEP_#4: x2 + x8 + x9 +x3+x6+x11 -x1 -x2 -x3 -x4 -x1 -x5 -x6 -x7 -x11 -x12 -x13 <= 1
(3,6)-SEP_#1: x2 + x8 + x9 +x11+x12+x13 -x4 -x9 -x13 -x14 -x1 -x2 -x3 -x4 -x5 -x8 -x10 <= 1
(3,6)-SEP_#2: x2 + x8 + x9 +x11+x12+x13 -x4 -x9 -x13 -x14 -x1 -x5 -x6 -x7 -x5 -x8 -x10 -x3 -x6 -x11 <= 1
(3,6)-SEP_#3: x2 + x8 + x9 +x11+x12+x13 -x4 -x9 -x13 -x14 -x1 -x2 -x3 -x4 -x1 -x5 -x6 -x7 -x7 -x10 -x12 -x14 <= 1
(3,6)-SEP_#4: x2 + x8 + x9 +x11+x12+x13 -x4 -x9 -x13 -x14 -x3 -x6 -x11 -x7 -x10 -x12 -x14 <= 1
(3,7)-SEP_#1: x2 + x8 + x9 +x7+x10+x12+x14 -x4 -x9 -x13 -x14 -x1 -x2 -x3 -x4 -x5 -x8 -x10 <= 1
(3,7)-SEP_#2: x2 + x8 + x9 +x7+x10+x12+x14 -x4 -x9 -x13 -x14 -x1 -x5 -x6 -x7 -x5 -x8 -x10 -x3 -x6 -x11 <= 1
(3,7)-SEP_#3: x2 + x8 + x9 +x7+x10+x12+x14 -x4 -x9 -x13 -x14 -x1 -x5 -x6 -x7 -x5 -x8 -x10 -x11 -x12 -x13 <= 1
(4,5)-SEP_#1: x5 + x8 + x10 +x3+x6+x11 -x1 -x5 -x6 -x7 -x2 -x8 -x9 -x7 -x10 -x12 -x14 <= 1
(4,5)-SEP_#2: x5 + x8 + x10 +x3+x6+x11 -x4 -x9 -x13 -x14 -x1 -x2 -x3 -x4 -x1 -x5 -x6 -x7 -x7 -x10 -x12 -x14 <= 1
(4,5)-SEP_#3: x5 + x8 + x10 +x3+x6+x11 -x4 -x9 -x13 -x14 -x1 -x5 -x6 -x7 -x2 -x8 -x9 -x11 -x12 -x13 <= 1
(4,5)-SEP_#4: x5 + x8 + x10 +x3+x6+x11 -x1 -x2 -x3 -x4 -x1 -x5 -x6 -x7 -x11 -x12 -x13 <= 1
(4,6)-SEP_#1: x5 + x8 + x10 +x11+x12+x13 -x1 -x5 -x6 -x7 -x2 -x8 -x9 -x7 -x10 -x12 -x14 <= 1
(4,6)-SEP_#2: x5 + x8 + x10 +x11+x12+x13 -x1 -x2 -x3 -x4 -x2 -x8 -x9 -x3 -x6 -x11 -x7 -x10 -x12 -x14 <= 1
(4,6)-SEP_#3: x5 + x8 + x10 +x11+x12+x13 -x4 -x9 -x13 -x14 -x1 -x2 -x3 -x4 -x1 -x5 -x6 -x7 -x7 -x10 -x12 -x14 <= 1
(4,6)-SEP_#4: x5 + x8 + x10 +x11+x12+x13 -x4 -x9 -x13 -x14 -x3 -x6 -x11 -x7 -x10 -x12 -x14 <= 1
(4,8)-SEP_#1: x5 + x8 + x10 +x4+x9+x13+x14 -x1 -x5 -x6 -x7 -x2 -x8 -x9 -x7 -x10 -x12 -x14 <= 1
(4,8)-SEP_#2: x5 + x8 + x10 +x4+x9+x13+x14 -x1 -x2 -x3 -x4 -x2 -x8 -x9 -x3 -x6 -x11 -x7 -x10 -x12 -x14 <= 1
(4,8)-SEP_#3: x5 + x8 + x10 +x4+x9+x13+x14 -x1 -x2 -x3 -x4 -x2 -x8 -x9 -x11 -x12 -x13 -x7 -x10 -x12 -x14 <= 1
(5,7)-SEP_#1: x3 + x6 + x11 +x7+x10+x12+x14 -x1 -x2 -x3 -x4 -x1 -x5 -x6 -x7 -x11 -x12 -x13 <= 1
(5,7)-SEP_#2: x3 + x6 + x11 +x7+x10+x12+x14 -x4 -x9 -x13 -x14 -x1 -x5 -x6 -x7 -x2 -x8 -x9 -x11 -x12 -x13 <= 1
(5,7)-SEP_#3: x3 + x6 + x11 +x7+x10+x12+x14 -x4 -x9 -x13 -x14 -x1 -x5 -x6 -x7 -x5 -x8 -x10 -x11 -x12 -x13 <= 1
(5,8)-SEP_#1: x3 + x6 + x11 +x4+x9+x13+x14 -x1 -x2 -x3 -x4 -x1 -x5 -x6 -x7 -x11 -x12 -x13 <= 1
(5,8)-SEP_#2: x3 + x6 + x11 +x4+x9+x13+x14 -x1 -x2 -x3 -x4 -x5 -x8 -x10 -x11 -x12 -x13 -x7 -x10 -x12 -x14 <= 1
(5,8)-SEP_#3: x3 + x6 + x11 +x4+x9+x13+x14 -x1 -x2 -x3 -x4 -x2 -x8 -x9 -x11 -x12 -x13 -x7 -x10 -x12 -x14 <= 1

Bounds

Binaries
 x1  x2  x3  x4  x5  x6  x7  x8  x9  x10  x11  x12  x13  x14 

End
